50
    1   155   155
    2   256   256
    3   396   396
    4   392   392
    5   346   346
    6   386   386
    7   427   427
    8   282   282
    9     8     8
   10    67    67
   11   165   165
   12    91    91
   13   481   481
   14    19    19
   15    95    95
   16   165   165
   17   393   393
   18   112   112
   19   322   322
   20   192   192
   21   495   495
   22   241   241
   23   179   179
   24     9     9
   25    96    96
   26   141   141
   27   256   256
   28   500   500
   29   228   228
   30   341   341
   31    28    28
   32   394   394
   33   145   145
   34    24    24
   35   188   188
   36   484   484
   37   461   461
   38   232   232
   39   390   390
   40   339   339
   41   277   277
   42   139   139
   43    11    11
   44   485   485
   45   156   156
   46   142   142
   47    14    14
   48    58    58
   49   456   456
   50   335   335
9995
